************************************************************************
file with basedata            : j904_.bas
initial value random generator: 2014460266
************************************************************************
projects                      :  1
jobs (incl. supersource/sink ):  92
horizon                       :  504
RESOURCES
  - renewable                 :  4   R
  - nonrenewable              :  0   N
  - doubly constrained        :  0   D
************************************************************************
PROJECT INFORMATION:
pronr.  #jobs rel.date duedate tardcost  MPM-Time
    1     90      0       88       30       88
************************************************************************
PRECEDENCE RELATIONS:
jobnr.    #modes  #successors   successors
   1        1          3           2   3   4
   2        1          2           6  12
   3        1          3          13  19  32
   4        1          3           5  10  53
   5        1          2           7  46
   6        1          3          16  25  37
   7        1          3           8  15  44
   8        1          3           9  18  48
   9        1          3          11  17  30
  10        1          2          24  26
  11        1          2          22  49
  12        1          3          14  21  28
  13        1          1          18
  14        1          1          71
  15        1          2          20  69
  16        1          1          62
  17        1          3          34  38  43
  18        1          1          79
  19        1          3          23  27  39
  20        1          2          31  52
  21        1          1          35
  22        1          3          29  61  91
  23        1          1          59
  24        1          1          73
  25        1          1          35
  26        1          3          39  40  51
  27        1          1          89
  28        1          1          88
  29        1          1          33
  30        1          1          47
  31        1          2          81  86
  32        1          1          36
  33        1          1          83
  34        1          2          50  78
  35        1          3          41  42  67
  36        1          1          69
  37        1          2          66  68
  38        1          1          84
  39        1          2          45  47
  40        1          1          70
  41        1          3          48  83  89
  42        1          1          77
  43        1          1          71
  44        1          1          54
  45        1          3          57  59  63
  46        1          2          60  79
  47        1          1          65
  48        1          1          82
  49        1          3          56  58  67
  50        1          1          56
  51        1          1          70
  52        1          1          66
  53        1          2          64  76
  54        1          1          55
  55        1          2          58  73
  56        1          2          79  86
  57        1          1          75
  58        1          1          64
  59        1          1          85
  60        1          1          91
  61        1          1          87
  62        1          1          87
  63        1          1          84
  64        1          1          80
  65        1          1          82
  66        1          1          76
  67        1          2          73  80
  68        1          1          71
  69        1          1          74
  70        1          1          72
  71        1          1          75
  72        1          1          75
  73        1          1          81
  74        1          1          90
  75        1          1          78
  76        1          1          85
  77        1          1          85
  78        1          1          81
  79        1          1          83
  80        1          1          86
  81        1          1          84
  82        1          1          88
  83        1          1          88
  84        1          1          89
  85        1          1          91
  86        1          1          87
  87        1          1          90
  88        1          1          90
  89        1          1          92
  90        1          1          92
  91        1          1          92
  92        1          0        
************************************************************************
REQUESTS/DURATIONS:
jobnr. mode duration  R 1  R 2  R 3  R 4
------------------------------------------------------------------------
  1      1     0       0    0    0    0
  2      1     2       0    0   10    0
  3      1     8       0    8    0    0
  4      1     1       0    8    0    0
  5      1    10       5    0    0    0
  6      1     4       0   10    0    0
  7      1     3       0    3    0    0
  8      1     6       6    0    0    0
  9      1     9       0    0    6    0
 10      1     7       0    0    0    5
 11      1     5       0    3    0    0
 12      1     8      10    0    0    0
 13      1     5       4    0    0    0
 14      1     8       0    0    7    0
 15      1    10       0   10    0    0
 16      1     5       0    4    0    0
 17      1     8       3    0    0    0
 18      1     9       0    0    8    0
 19      1    10       0    0    4    0
 20      1     8       0    4    0    0
 21      1     1       0    0    0    5
 22      1     6       0    8    0    0
 23      1     4       0    0    0   10
 24      1     5       0    2    0    0
 25      1     7       0    3    0    0
 26      1     3       3    0    0    0
 27      1     8       0    0    0    1
 28      1     4       0    0    0    7
 29      1     8       0    2    0    0
 30      1     6       0    0    8    0
 31      1     3       0    0    0    2
 32      1     6       4    0    0    0
 33      1     7       0    0   10    0
 34      1     7       0    0    0    1
 35      1     3       1    0    0    0
 36      1     1       0    0    6    0
 37      1     2       0    0    7    0
 38      1     2       0    0    0    1
 39      1     9       0    0    0    4
 40      1     2       0   10    0    0
 41      1     1       0    0    9    0
 42      1     4       3    0    0    0
 43      1     9       0    0    3    0
 44      1     4       0    5    0    0
 45      1     8       0    6    0    0
 46      1     7       0    4    0    0
 47      1     6       7    0    0    0
 48      1     8       0    0    0    1
 49      1     7       0    0    0    4
 50      1     9       0    0    4    0
 51      1     3       8    0    0    0
 52      1     9       0    0    0   10
 53      1     3       0    0    7    0
 54      1     6       3    0    0    0
 55      1     7       0    0    2    0
 56      1     9       4    0    0    0
 57      1     2       0    0    0   10
 58      1     7       0    0    1    0
 59      1     3       0    0    6    0
 60      1     4       0    0    0    1
 61      1     9       0    8    0    0
 62      1     7       0    0    0    7
 63      1     3       0    0    0    6
 64      1    10       0    4    0    0
 65      1     1       8    0    0    0
 66      1     8       9    0    0    0
 67      1     1       0    4    0    0
 68      1     9       1    0    0    0
 69      1     7       5    0    0    0
 70      1     4       0    0    4    0
 71      1     4       9    0    0    0
 72      1     6       0    0    0   10
 73      1    10       0    0    0    9
 74      1    10       6    0    0    0
 75      1    10       0    0    0   10
 76      1     3       0    0    9    0
 77      1     5       9    0    0    0
 78      1     9       0    0    0    7
 79      1     8      10    0    0    0
 80      1     3       6    0    0    0
 81      1     7       0    8    0    0
 82      1     2       0   10    0    0
 83      1     8       0    7    0    0
 84      1     3       0    0    9    0
 85      1     3       0    2    0    0
 86      1     2       0    0    7    0
 87      1     1       0    3    0    0
 88      1     7       0    4    0    0
 89      1     3       0    0    2    0
 90      1     3       0    0    0    3
 91      1     2       6    0    0    0
 92      1     0       0    0    0    0
************************************************************************
RESOURCEAVAILABILITIES:
  R 1  R 2  R 3  R 4
   27   22   24   30
************************************************************************
Job	#risk	Type	VL	mu	sigma	Type	VL	mu	sigma
4	2	1	0.2	1.25	0.25	2	0.05	2.5	0.125
5	1	3	0.05	3.75	0.1875
8	2	3	0.05	3.75	0.1875	4	0.2	5	1
13	2	2	0.1	2.5	0.25	5	0.05	6.25	0.3125
18	2	6	0.1	7.5	0.75	8	0.2	10	2
21	2	4	0.1	5	0.5	7	0.2	8.75	1.75
23	1	5	0.2	6.25	1.25
25	2	4	0.1	5	0.5	6	0.1	7.5	0.75
28	1	1	0.05	1.25	0.0625
29	1	8	0.1	10	1
38	2	6	0.05	7.5	0.375	8	0.05	10	0.5
43	1	4	0.2	5	1
44	1	8	0.1	10	1
52	2	6	0.2	7.5	1.5	8	0.05	10	0.5
59	2	1	0.2	1.25	0.25	5	0.05	6.25	0.3125
64	2	1	0.1	1.25	0.125	5	0.1	6.25	0.625
66	1	1	0.05	1.25	0.0625
67	2	3	0.05	3.75	0.1875	8	0.1	10	1
68	1	2	0.2	2.5	0.5
69	1	5	0.05	6.25	0.3125
74	2	5	0.2	6.25	1.25	6	0.1	7.5	0.75
75	2	2	0.1	2.5	0.25	6	0.2	7.5	1.5
76	1	2	0.1	2.5	0.25
83	1	8	0.05	10	0.5
84	1	7	0.2	8.75	1.75
87	2	1	0.05	1.25	0.0625	8	0.1	10	1
88	2	1	0.2	1.25	0.25	3	0.05	3.75	0.1875
